
--- Job M1_5_E2c.gms Start 05/22/25 14:57:26 49.5.0 b32bf9f5 WEX-WEI x86 64bit/MS Windows
--- Applying:
    C:\GAMS\49\gmsprmNT.txt
--- GAMS Parameters defined
    Input "C:\Users\pm.deoliveiradejes\Dropbox\Maestria en Energia (MISE)\MISE_E4\MISE_E4-main\M1.5_Self-Generation_Dispatch Hydrogen\Ejemplo_2_H\gams\M1_5_E2c.gms"
    PageSize 0
    ScrDir "C:\Users\pm.deoliveiradejes\Dropbox\Maestria en Energia (MISE)\MISE_E4\MISE_E4-main\M1.5_Self-Generation_Dispatch Hydrogen\Ejemplo_2_H\gams\225a\"
    SysDir C:\GAMS\49\
    LogOption 3
    ErrMsg 1
    ErrorLog 99
    IDE 1
    LstTitleLeftAligned 1
Licensee: Academic User                                  G240823+0003Ac-GEN
          pm.deoliveiradejes@uniandes.edu.co                      CLA100108
          225a\gamslice.dat
          node:36839801 mem:8 cores:4 ipport:56619 v:2                     
          Community license for demonstration and instructional purposes only
System information: 4 physical cores and 8 Gb memory detected
GAMS 49.5.0   Copyright (C) 1987-2025 GAMS Development. All rights reserved
--- Starting compilation
--- M1_5_E2c.gms(215) 3 Mb
--- Starting execution: elapsed 0:00:00.031
--- M1_5_E2c.gms(206) 4 Mb
--- Generating MIP model AGPE_H2
--- M1_5_E2c.gms(211) 4 Mb
---   527 rows  405 columns  1,448 non-zeroes
---   166 discrete-columns
--- Range statistics (absolute non-zero finite values)
--- RHS       [min, max] : [ 1.000E+00, 1.285E+06] - Zero values observed as well
--- Bound     [min, max] : [ 1.000E+00, 1.900E+03] - Zero values observed as well
--- Matrix    [min, max] : [ 1.500E-02, 3.431E+03]
--- Executing GUROBI (Solvelink=2): elapsed 0:00:00.047

Gurobi           49.5.0 b32bf9f5 Apr 29, 2025          WEI x86 64bit/MS Window

*** This solver runs with a community license. No commercial use.
Gurobi library version 12.0.1
GAMS/Gurobi demo/community requires a Gurobi license from Gurobi Optimization.
Set parameter OutputFlag to value 1
Set parameter MIPGap to value 0.0001
Set parameter MIPGapAbs to value 0
Space for names approximately 0.01 Mb
Use option 'names no' to turn use of names off
Set parameter OutputFlag to value 1
Starting Gurobi...
Gurobi Optimizer version 12.0.1 build v12.0.1rc0 (win64 - Windows 10.0 (19045.2))

CPU model: Intel(R) Core(TM) i7-2600 CPU @ 3.40GHz, instruction set [SSE2|AVX]
Thread count: 4 physical cores, 8 logical processors, using up to 8 threads

Non-default parameters:
MIPGapAbs  0

Academic license 2663428 - for non-commercial use only - registered to pm___@uniandes.edu.co
Optimize a model with 526 rows, 404 columns and 1444 nonzeros
Model fingerprint: 0x66912201
Variable types: 238 continuous, 166 integer (166 binary)
Coefficient statistics:
  Matrix range     [1e-02, 3e+03]
  Objective range  [1e+00, 1e+00]
  Bounds range     [1e+00, 2e+03]
  RHS range        [1e+00, 1e+06]
Presolve removed 258 rows and 137 columns
Presolve time: 0.01s
Presolved: 268 rows, 267 columns, 801 nonzeros
Variable types: 134 continuous, 133 integer (133 binary)
Found heuristic solution: objective 78474.647701

Root relaxation: objective 9.409197e+04, 101 iterations, 0.00 seconds (0.00 work units)

    Nodes    |    Current Node    |     Objective Bounds      |     Work
 Expl Unexpl |  Obj  Depth IntInf | Incumbent    BestBd   Gap | It/Node Time

*    0     0               0    94091.972216 94091.9722  0.00%     -    0s

Explored 1 nodes (101 simplex iterations) in 0.03 seconds (0.00 work units)
Thread count was 8 (of 8 available processors)

Solution count 2: 94092 78474.6 

Optimal solution found (tolerance 1.00e-04)
Best objective 9.409197221644e+04, best bound 9.409197221644e+04, gap 0.0000%

User-callback calls 588, time in user-callback 0.00 sec
MIP status(2): Model was solved to optimality (subject to tolerances).

Solving fixed MIP.
Gurobi Optimizer version 12.0.1 build v12.0.1rc0 (win64 - Windows 10.0 (19045.2))

CPU model: Intel(R) Core(TM) i7-2600 CPU @ 3.40GHz, instruction set [SSE2|AVX]
Thread count: 4 physical cores, 8 logical processors, using up to 8 threads

Non-default parameters:
MIPGapAbs  0

Academic license 2663428 - for non-commercial use only - registered to pm___@uniandes.edu.co
Optimize a model with 526 rows, 404 columns and 1444 nonzeros
Model fingerprint: 0xf04a7e7d
Coefficient statistics:
  Matrix range     [1e-02, 3e+03]
  Objective range  [1e+00, 1e+00]
  Bounds range     [1e+00, 2e+03]
  RHS range        [1e+00, 1e+06]
Presolve removed 504 rows and 345 columns
Presolve time: 0.00s
Presolved: 22 rows, 59 columns, 99 nonzeros

Iteration    Objective       Primal Inf.    Dual Inf.      Time
       0    3.8058378e+05   4.014091e+04   0.000000e+00      0s
      23    9.4091972e+04   0.000000e+00   0.000000e+00      0s

Solved in 23 iterations and 0.00 seconds (0.00 work units)
Optimal objective  9.409197222e+04

User-callback calls 106, time in user-callback 0.00 sec
Fixed MIP status(2): Model was solved to optimality (subject to tolerances).

MIP   Solution:      94091.972216    (101 iterations, 1 nodes)
Final Solve:         94091.972216    (23 iterations)

Best possible:       94091.972216
Absolute gap:           -0.000000
Relative gap:            0.000000

--- Reading solution for model AGPE_H2
--- Executing after solve: elapsed 0:00:00.269
--- M1_5_E2c.gms(215) 4 Mb
--- GDX File (execute_unload) C:\Users\pm.deoliveiradejes\Dropbox\Maestria en Energia (MISE)\MISE_E4\MISE_E4-main\M1.5_Self-Generation_Dispatch Hydrogen\Ejemplo_2_H\gams\Results_M1_5_E2c.gdx
*** Status: Normal completion
--- Job M1_5_E2c.gms Stop 05/22/25 14:57:27 elapsed 0:00:00.284
